120
1000
200
200
199
199
198
198
197
197
196
196
196
196
195
195
195
195
194
194
193
193
193
193
193
192
191
191
191
191
191
190
189
189
189
188
188
187
187
186
186
186
185
185
185
184
184
183
183
183
183
183
182
182
181
180
180
180
178
177
176
176
175
175
175
175
174
173
173
172
172
171
171
171
171
170
170
170
169
169
169
168
167
167
167
167
166
166
165
165
164
163
163
163
163
163
162
160
159
159
159
159
159
158
158
157
157
156
156
156
155
155
154
154
154
153
152
151
150
150
150
150
